DIMACS2
40 156 0 48 129 73 59 109 155 98 32 101 25 41 103 85 86 54 84 71 132 62 77 50 94 111 12 133 83 105 158 141 53 139 92 51 56 26 122 60 13
p edge 160 342
e 0 145 32.0
e 0 97 3.0
e 1 117 2.0
e 1 86 14.0
e 2 82 2.0
e 2 145 1.0
e 3 100 1.0
e 3 146 1.0
e 4 147 1.0
e 4 32 12.0
e 5 118 1.0
e 5 116 2.0
e 6 78 2.0
e 6 142 3.0
e 7 111 32.0
e 7 143 1.0
e 8 109 24.0
e 8 6 1.0
e 9 116 1.0
e 9 75 1.0
e 10 151 1.0
e 10 115 1.0
e 11 128 1.0
e 11 52 1.0
e 12 105 28.0
e 12 92 47.0
e 12 155 1.0
e 12 48 33.0
e 13 117 16.0
e 13 133 14.0
e 14 20 1.0
e 14 129 41.0
e 15 0 22.0
e 15 118 1.0
e 16 62 46.0
e 16 151 1.0
e 17 115 1.0
e 17 9 1.0
e 18 99 1.0
e 18 29 1.0
e 19 57 1.0
e 19 42 1.0
e 20 115 1.0
e 20 81 1.0
e 21 35 1.0
e 21 115 1.0
e 22 98 32.0
e 22 146 1.0
e 23 152 1.0
e 23 108 1.0
e 24 147 1.0
e 24 26 49.0
e 25 81 6.0
e 25 0 38.0
e 25 41 41.0
e 25 122 48.0
e 26 82 18.0
e 26 44 8.0
e 27 85 24.0
e 27 3 1.0
e 28 117 1.0
e 28 12 26.0
e 29 32 40.0
e 29 34 3.0
e 30 145 1.0
e 30 58 1.0
e 31 51 12.0
e 31 63 1.0
e 32 0 7.0
e 32 46 24.0
e 33 151 2.0
e 33 28 2.0
e 34 35 1.0
e 34 1 2.0
e 35 121 1.0
e 35 112 1.0
e 36 3 1.0
e 36 25 31.0
e 37 74 2.0
e 37 82 1.0
e 38 13 10.0
e 38 82 1.0
e 39 131 2.0
e 39 18 2.0
e 40 134 1.0
e 40 42 2.0
e 41 49 37.0
e 41 141 7.0
e 41 83 8.0
e 42 55 1.0
e 42 69 1.0
e 43 133 38.0
e 43 4 1.0
e 44 153 1.0
e 44 139 31.0
e 45 79 1.0
e 45 23 1.0
e 46 155 5.0
e 46 13 21.0
e 47 112 2.0
e 47 4 2.0
e 48 7 45.0
e 48 103 15.0
e 48 53 6.0
e 48 59 26.0
e 49 45 2.0
e 49 32 44.0
e 50 97 20.0
e 50 98 4.0
e 51 158 35.0
e 51 134 3.0
e 52 35 1.0
e 52 108 1.0
e 53 115 5.0
e 53 34 18.0
e 53 129 24.0
e 54 126 7.0
e 54 51 47.0
e 54 56 10.0
e 54 71 40.0
e 55 51 45.0
e 56 40 5.0
e 56 24 5.0
e 56 60 35.0
e 57 102 1.0
e 58 22 1.0
e 58 4 2.0
e 59 153 5.0
e 59 42 29.0
e 60 11 3.0
e 60 53 28.0
e 60 141 25.0
e 61 50 49.0
e 61 114 2.0
e 62 22 49.0
e 62 123 48.0
e 63 94 8.0
e 63 157 1.0
e 64 79 2.0
e 64 86 20.0
e 65 74 2.0
e 65 128 1.0
e 66 2 2.0
e 66 77 4.0
e 67 99 1.0
e 67 112 1.0
e 68 121 1.0
e 68 4 1.0
e 69 76 1.0
e 69 38 2.0
e 70 52 1.0
e 70 113 2.0
e 71 130 20.0
e 71 138 6.0
e 71 73 17.0
e 71 158 25.0
e 72 113 2.0
e 72 11 1.0
e 73 65 23.0
e 73 11 37.0
e 73 141 31.0
e 74 95 1.0
e 74 51 30.0
e 75 56 37.0
e 75 62 30.0
e 76 147 2.0
e 76 1 1.0
e 77 118 18.0
e 77 50 17.0
e 77 132 21.0
e 77 83 5.0
e 78 3 1.0
e 78 125 2.0
e 79 14 1.0
e 79 59 16.0
e 80 30 1.0
e 80 119 1.0
e 81 153 1.0
e 81 66 1.0
e 82 108 1.0
e 82 119 1.0
e 83 103 7.0
e 83 123 5.0
e 84 39 47.0
e 84 107 3.0
e 84 92 46.0
e 85 144 11.0
e 85 100 37.0
e 86 111 44.0
e 86 108 35.0
e 87 74 1.0
e 87 143 1.0
e 88 126 1.0
e 88 61 1.0
e 89 123 1.0
e 89 4 1.0
e 90 150 2.0
e 90 37 2.0
e 91 6 1.0
e 91 142 2.0
e 92 45 3.0
e 92 108 16.0
e 93 26 8.0
e 93 115 1.0
e 94 8 1.0
e 94 145 5.0
e 94 98 38.0
e 95 9 1.0
e 95 45 2.0
e 96 92 38.0
e 96 54 11.0
e 97 66 1.0
e 97 65 1.0
e 98 14 25.0
e 98 156 12.0
e 99 122 20.0
e 99 83 39.0
e 100 40 1.0
e 100 127 2.0
e 101 106 20.0
e 101 84 22.0
e 101 103 1.0
e 101 105 43.0
e 101 109 36.0
e 102 32 2.0
e 102 29 2.0
e 103 124 22.0
e 103 0 11.0
e 104 59 33.0
e 104 129 35.0
e 105 42 9.0
e 105 138 1.0
e 105 139 10.0
e 106 134 1.0
e 106 38 2.0
e 107 88 3.0
e 107 82 2.0
e 108 41 43.0
e 108 6 1.0
e 109 106 37.0
e 109 65 31.0
e 109 111 26.0
e 110 123 1.0
e 110 94 17.0
e 111 156 43.0
e 111 26 18.0
e 112 81 1.0
e 112 117 1.0
e 113 81 1.0
e 114 11 1.0
e 114 157 1.0
e 115 155 36.0
e 115 153 1.0
e 116 31 1.0
e 116 44 1.0
e 117 64 2.0
e 117 143 2.0
e 118 79 1.0
e 118 74 2.0
e 119 5 1.0
e 119 96 1.0
e 120 13 37.0
e 120 89 1.0
e 121 8 1.0
e 121 60 1.0
e 122 135 3.0
e 122 51 33.0
e 122 132 47.0
e 123 108 1.0
e 123 22 1.0
e 124 52 1.0
e 124 14 2.0
e 125 76 1.0
e 125 128 1.0
e 126 22 1.0
e 126 125 2.0
e 127 17 1.0
e 127 102 1.0
e 128 39 3.0
e 128 27 2.0
e 129 32 40.0
e 129 6 29.0
e 130 88 2.0
e 130 7 2.0
e 131 78 1.0
e 131 19 1.0
e 132 31 29.0
e 132 85 45.0
e 132 139 47.0
e 133 52 46.0
e 133 37 9.0
e 134 133 39.0
e 134 116 1.0
e 135 30 2.0
e 135 63 1.0
e 136 57 1.0
e 136 10 1.0
e 137 70 2.0
e 137 117 1.0
e 138 81 2.0
e 138 36 1.0
e 139 104 47.0
e 139 102 44.0
e 140 137 2.0
e 140 46 1.0
e 141 99 26.0
e 141 34 36.0
e 142 156 37.0
e 142 58 2.0
e 143 52 2.0
e 143 85 42.0
e 144 23 1.0
e 144 86 36.0
e 145 88 1.0
e 145 73 30.0
e 146 57 1.0
e 146 17 1.0
e 147 90 1.0
e 147 40 1.0
e 148 64 1.0
e 148 158 26.0
e 149 34 1.0
e 149 152 1.0
e 150 9 1.0
e 150 130 2.0
e 151 52 1.0
e 151 50 6.0
e 152 143 2.0
e 152 16 3.0
e 153 31 1.0
e 154 50 40.0
e 154 84 16.0
e 155 0 11.0
e 155 136 36.0
e 156 62 20.0
e 156 79 19.0
e 157 1 2.0
e 157 119 1.0
e 158 52 31.0
e 158 150 49.0
e 159 49 1.0
e 159 33 1.0
